=obj= -128
C0001 0
C0002 0
C0003 0
C0004 0
C0005 0
C0006 0
C0007 2
C0008 0
C0009 0
C0010 0
C0011 0
C0012 0
C0013 3
C0014 0
C0015 0
C0016 1
C0017 0
C0018 3
C0019 0
C0020 0
C0021 0
C0022 0
C0023 0
C0024 0
C0025 0
C0026 0
C0027 0
C0028 0
C0029 0
C0030 0
C0031 0
C0032 0
C0033 2
C0034 0
C0035 0
C0036 0
C0037 0
C0038 0
C0039 3
C0040 0
C0041 0
C0042 0
C0043 0
C0044 0
C0045 0
C0046 2
C0047 0
C0048 0
C0049 0
C0050 0
C0051 0
C0052 3
C0053 0
C0054 0
C0055 0
C0056 0
C0057 0
C0058 1
C0059 0
C0060 0
C0061 0
C0062 1
C0063 0
C0064 3
C0065 0
C0066 0
C0067 0
C0068 0
C0069 0
C0070 0
C0071 0
C0072 0
C0073 0
C0074 0
C0075 1
C0076 0
C0077 3
C0078 0
C0079 0
C0080 0
C0081 2
C0082 0
C0083 0
C0084 0
C0085 0
C0086 3
C0087 0
C0088 0
C0089 0
C0090 0
C0091 0
C0092 0
C0093 0
C0094 2
C0095 0
C0096 0
C0097 0
C0098 0
C0099 3
C0100 0
C0101 0
C0102 0
C0103 0
C0104 0
C0105 0
C0106 0
C0107 2
C0108 0
C0109 0
C0110 3
C0111 0
C0112 0
C0113 0
C0114 0
C0115 0
C0116 0
C0117 0
C0118 0
C0119 0
C0120 0
C0121 0
C0122 3
C0123 0
C0124 0
C0125 0
C0126 0
C0127 0
C0128 0
C0129 0
C0130 2
C0131 2
C0132 0
C0133 0
C0134 3
C0135 0
C0136 0
C0137 0
C0138 0
C0139 0
C0140 0
C0141 0
C0142 0
C0143 0
C0144 0
C0145 0
C0146 0
C0147 0
C0148 0
C0149 0
C0150 3
C0151 0
C0152 2
C0153 0
C0154 0
C0155 0
C0156 0
C0157 0
C0158 0
C0159 0
C0160 0
C0161 0
C0162 2
C0163 0
C0164 0
C0165 3
C0166 0
C0167 0
C0168 0
C0169 0
C0170 0
C0171 0
C0172 0
C0173 1
C0174 0
C0175 0
C0176 0
C0177 0
C0178 0
C0179 1
C0180 3
C0181 0
C0182 0
C0183 1
C0184 0
C0185 0
C0186 2
C0187 0
C0188 0
C0189 1
C0190 0
C0191 0
C0192 1
C0193 0
C0194 0
C0195 0
C0196 0
C0197 0
C0198 0
C0199 0
C0200 0
C0201 2
C0202 0
C0203 0
C0204 3
C0205 0
C0206 0
C0207 0
C0208 0
C0209 0
C0210 0
C0211 0
C0212 0
C0213 0
C0214 3
C0215 0
C0216 0
C0217 2
C0218 0
C0219 0
C0220 0
C0221 0
C0222 2
C0223 3
C0224 0
C0225 0
C0226 0
C0227 0
C0228 0
C0229 0
C0230 0
C0231 0
C0232 0
C0233 0
C0234 0
C0235 0
C0236 0
C0237 0
C0238 0
C0239 0
C0240 0
C0241 2
C0242 0
C0243 0
C0244 0
C0245 0
C0246 0
C0247 3
C0248 2
C0249 0
C0250 3
C0251 0
C0252 0
C0253 0
C0254 0
C0255 0
C0256 0
C0257 0
C0258 0
C0259 0
C0260 0
C0261 3.77476e-15
C0262 1.55431e-15
C0263 1.43475e-15
C0264 1.32438e-15
C0265 1.22251e-15
C0266 3.77476e-15
C0267 0
C0268 1.99957e-15
C0269 1.84575e-15
C0270 1.70377e-15
C0271 1.57271e-15
C0272 2
C0273 3
C0274 8.19857e-16
C0275 7.56791e-16
C0276 2
C0277 3.77476e-15
C0278 3
C0279 0
C0280 3.77476e-15
C0281 2.38704e-15
C0282 2.20342e-15
C0283 2.03392e-15
C0284 1.87747e-15
C0285 1.73305e-15
C0286 1.59974e-15
C0287 0
C0288 0
C0289 0
C0290 3
C0291 0
C0292 2
C0293 0
C0294 0
C0295 0
C0296 0
C0297 0
C0298 0
C0299 0
C0300 6.83214e-16
C0301 6.30659e-16
C0302 5.82147e-16
C0303 3.77476e-15
C0304 1.40846e-15
C0305 3.77476e-15
C0306 2
C0307 3
C0308 2.0042e-15
C0309 1.85003e-15
C0310 1.70772e-15
C0311 1.57636e-15
C0312 1.4551e-15
C0313 2
C0314 0
C0315 0
C0316 0
C0317 0
C0318 3
C0319 0
C0320 0
C0321 0
C0322 0
C0323 0
C0324 0
C0325 0
C0326 0
C0327 0
C0328 0
C0329 2
C0330 0
C0331 0
C0332 3
C0333 0
C0334 0
C0335 0
C0336 0
C0337 0
C0338 0
C0339 0
C0340 0
C0341 0
C0342 0
C0343 0
C0344 0
C0345 1
C0346 0
C0347 0
C0348 0
C0349 0
C0350 0
C0351 1
C0352 0
C0353 0
C0354 1
C0355 0
C0356 1
C0357 0
C0358 0
C0359 0
C0360 0
C0361 0
C0362 1
C0363 0
C0364 0
C0365 0
C0366 0
C0367 0
C0368 0
C0369 0
C0370 0
C0371 1
C0372 0
C0373 0
C0374 0
C0375 0
C0376 0
C0377 1
C0378 0
C0379 1
C0380 0
C0381 0
C0382 0
C0383 0
C0384 1
C0385 0
C0386 0
C0387 0
C0388 0
C0389 0
C0390 1
C0391 0
C0392 1
C0393 0
C0394 0
C0395 0
C0396 1
C0397 0
C0398 0
C0399 0
C0400 1
C0401 0
C0402 1
C0403 0
C0404 0
C0405 0
C0406 0
C0407 0
C0408 0
C0409 0
C0410 0
C0411 0
C0412 0
C0413 1
C0414 0
C0415 1
C0416 0
C0417 0
C0418 0
C0419 1
C0420 0
C0421 1
C0422 0
C0423 0
C0424 1
C0425 0
C0426 0
C0427 0
C0428 0
C0429 0
C0430 0
C0431 0
C0432 1
C0433 0
C0434 1
C0435 0
C0436 0
C0437 1
C0438 0
C0439 0
C0440 0
C0441 0
C0442 0
C0443 0
C0444 1
C0445 1
C0446 0
C0447 0
C0448 1
C0449 1
C0450 1
C0451 1
C0452 1
C0453 1
C0454 1
C0455 0
C0456 0
C0457 0
C0458 0
C0459 0
C0460 1
C0461 0
C0462 0
C0463 0
C0464 0
C0465 0
C0466 0
C0467 0
C0468 1
C0469 1
C0470 0
C0471 0
C0472 1
C0473 0
C0474 0
C0475 0
C0476 0
C0477 0
C0478 0
C0479 0
C0480 0
C0481 0
C0482 0
C0483 1
C0484 1
C0485 0
C0486 1
C0487 1
C0488 1
C0489 1
C0490 1
C0491 1
C0492 1
C0493 1
C0494 1
C0495 0
C0496 0
C0497 1
C0498 0
C0499 1
C0500 1
C0501 0
C0502 1
C0503 1
C0504 0
C0505 0
C0506 1
C0507 0
C0508 0
C0509 0
C0510 0
C0511 1
C0512 0
C0513 0
C0514 0
C0515 0
C0516 0
C0517 1
C0518 1
C0519 0
C0520 0
C0521 1
C0522 0
C0523 0
C0524 1
C0525 0
C0526 0
C0527 1
C0528 0
C0529 0
C0530 1
C0531 0
C0532 0
C0533 0
C0534 0
C0535 1
C0536 0
C0537 0
C0538 1
C0539 1
C0540 0
C0541 1
C0542 1
C0543 0
C0544 0
C0545 1
C0546 1
C0547 0
C0548 1
C0549 0
C0550 0
C0551 1
C0552 1
C0553 0
C0554 1
C0555 1
C0556 0
C0557 0
C0558 1
C0559 0
C0560 1
C0561 1
C0562 0
C0563 0
C0564 0
C0565 0
C0566 0
C0567 0
C0568 0
C0569 0
C0570 0
C0571 0
C0572 0
C0573 0
C0574 0
C0575 0
C0576 1
C0577 0
C0578 0
C0579 1
C0580 0
C0581 0
C0582 0
C0583 0
C0584 0
C0585 1
C0586 1
C0587 0
C0588 1
C0589 0
C0590 0
C0591 0
C0592 0
C0593 0
C0594 0
C0595 0
C0596 0
C0597 0
C0598 0
C0599 0
C0600 1
C0601 1
C0602 1
C0603 1
C0604 0
C0605 1
C0606 1
C0607 1
C0608 1
C0609 1
C0610 1
C0611 1
C0612 1
C0613 1
C0614 1
C0615 0
C0616 1
C0617 1
C0618 0
C0619 1
C0620 1
C0621 1
C0622 1
C0623 1
C0624 1
C0625 0
C0626 0
C0627 0
C0628 1
C0629 0
C0630 1
C0631 0
C0632 0
C0633 0
C0634 0
C0635 0
C0636 0
C0637 0
C0638 1
C0639 1
C0640 1
C0641 0
C0642 1
C0643 0
C0644 1
C0645 1
C0646 1
C0647 1
C0648 1
C0649 1
C0650 1
C0651 1
C0652 0
C0653 0
C0654 0
C0655 0
C0656 1
C0657 0
C0658 0
C0659 0
C0660 0
C0661 0
C0662 0
C0663 0
C0664 0
C0665 0
C0666 0
C0667 1
C0668 0
C0669 0
C0670 1
C0671 0
C0672 0
C0673 0
C0674 0
C0675 0
C0676 0
